Route #1: 26
Route #2: 111 76
Route #3: 86 96
Route #4: 31 60
Route #5: 38 102
Route #6: 14 123 44 52 97 13 23 49
Route #7: 82 56
Route #8: 24 15 78 92 42 74
Route #9: 28 70 6 34 2 124 50
Route #10: 115 88 89 105 51
Route #11: 59 9 19 11 114 87
Route #12: 66 116 17 81 16 43
Route #13: 106 61
Route #14: 83 21
Route #15: 18 10
Route #16: 57 120
Route #17: 35 8
Route #18: 113 33 5
Route #19: 32 75
Route #20: 37 53
Route #21: 98 45
Route #22: 29 104 71 119
Route #23: 58 80 65 41 107 4
Route #24: 94 47 22 40 68 25 109 36
Route #25: 55 79 63 46 1 27 30
Route #26: 108 62 85 117 118 7 77 64 54
Route #27: 84 48 121 101 20 95
Route #28: 67 72 69
Route #29: 39 103
Route #30: 12 100
Route #31: 99 91
Route #32: 112 122
Route #33: 110 73 90
Route #34: 3 93
Cost 62075
